Ti16 Al8 O32
1.0
   8.5213000000000001    0.0000000000000000    0.0000000000000000
   0.0000000000000004    6.0254000000000003    0.0000000000000000
   0.0000000000000016    0.0000000000000016   25.5847000000000016
Ti Al O
16 8 32
Selective dynamics
direct
   0.8249599999999973    0.5884399999999985    0.3329799999999992 F F F Ti
   0.3262458495857595    0.0915788543973390    0.4467746591567756 T T T Ti
   0.3249599999999973    0.0884399999999985    0.2152200000000022 F F F Ti
   0.8625960474650265    0.5831319049204068    0.5610307528528846 T T T Ti
   0.3249599999999973    0.0884399999999985    0.3329799999999992 F F F Ti
   0.8249599999999973    0.5884399999999985    0.2152200000000022 F F F Ti
   0.2871816345480201    0.0839612380050227    0.5608467057440767 T T T Ti
   0.5706418907320115    0.3410650905406571    0.5121564547300220 T T T Ti
   0.0730301165289830    0.8331243579099958    0.3904336707720022 T T T Ti
   0.0749599999999973    0.8384399999999985    0.1563400000000001 F F F Ti
   0.0749599999999973    0.3384399999999985    0.1563400000000001 F F F Ti
   0.5789614843965626    0.8410481144122091    0.5122426302774086 T T T Ti
   0.5749599999999973    0.8384399999999985    0.2740999999999971 F F F Ti
   0.5749599999999973    0.3384399999999985    0.2740999999999971 F F F Ti
   0.8221667962744141    0.5911489890534487    0.4471704981089938 T T T Ti
   0.0764842787560592    0.3338802955898033    0.3907749072495873 T T T Ti
   0.1999599999999973    0.5884399999999985    0.2740999999999971 F F F Al
   0.6986133787611364    0.0916255465326450    0.3921901048366374 T T T Al
   0.1969529636652698    0.5884843772880618    0.5082198198676036 T T T Al
   0.6999599999999973    0.0884399999999985    0.1563400000000001 F F F Al
   0.9499599999999973    0.0884399999999985    0.2740999999999971 F F F Al
   0.4499599999999973    0.5884399999999985    0.1563400000000001 F F F Al
   0.4510742890143039    0.5917502694333896    0.3921104884355807 T T T Al
   0.9525715138999449    0.0874591804639985    0.5082386724305215 T T T Al
   0.8211204927744559    0.8480687320948609    0.3930914326198954 T T T O
   0.3195117219421558    0.8337481119693791    0.5069767483960124 T T T O
   0.5778787760415017    0.0974382190993238    0.4509266915817745 T T T O
   0.0782999999999987    0.5884399999999985    0.2167900000000031 F F F O
   0.8234509087533555    0.3322144361578466    0.3905546953750682 T T T O
   0.0803891154587669    0.5931405568010381    0.5645158788208601 T T T O
   0.3216299999999990    0.3451099999999983    0.2740999999999971 F F F O
   0.5226540855253924    0.0759536057898644    0.5623432610173208 T T T O
   0.0744721825059051    0.5788305708083565    0.4503097670774656 T T T O
   0.0782999999999987    0.5884399999999985    0.3314000000000021 F F F O
   0.3209712840714730    0.3453430804739447    0.5100489233820588 T T T O
   0.8216299999999990    0.3317699999999988    0.1563400000000001 F F F O
   0.5782999999999987    0.0884399999999985    0.3345500000000001 F F F O
   0.3282999999999987    0.8317699999999988    0.1563400000000001 F F F O
   0.8282999999999987    0.8451099999999983    0.2740999999999971 F F F O
   0.5713211006158050    0.5976323069633435    0.4509330025775719 T T T O
   0.5716299999999990    0.5884399999999985    0.2136500000000012 F F F O
   0.0716299999999990    0.0884399999999985    0.2167900000000031 F F F O
   0.3287993508503965    0.3486589334811165    0.3929348622359963 T T T O
   0.0694407231665965    0.0931907637611564    0.5644557740810573 T T T O
   0.8282999999999987    0.3317699999999988    0.2740999999999971 F F F O
   0.6269386710731668    0.5754337381469714    0.5623801408875216 T T T O
   0.0716299999999990    0.0884399999999985    0.3314000000000021 F F F O
   0.8302571200468776    0.3330883628350159    0.5070589568073819 T T T O
   0.3282999999999987    0.3451099999999983    0.1563400000000001 F F F O
   0.5716299999999990    0.5884399999999985    0.3345500000000001 F F F O
   0.0742124178291168    0.0752299508663818    0.4501539815206841 T T T O
   0.3257150658566950    0.8318545749409577    0.3903690879411438 T T T O
   0.8283589771412933    0.8447948831295506    0.5103367961430366 T T T O
   0.5782999999999987    0.0884399999999985    0.2136500000000012 F F F O
   0.3216299999999990    0.8317699999999988    0.2740999999999971 F F F O
   0.8216299999999990    0.8451099999999983    0.1563400000000001 F F F O
