pymatgen with grid density = 677 / number of atoms
0
Gamma
2 4 1
