ADDGRID = True
ALGO = Fast
BMIX = 1
EDIFF = 0.0005600000000000001
EDIFF_PER_ATOM = 1e-05
ENCUT = 520.0
IBRION = 0
ISIF = 0
ISMEAR = 0
ISPIN = 1
ISYM = 0
KBLOCK = 100
LASPH = True
LCHARG = False
LDAU = False
LMAXMIX = 4
LORBIT = 11
LPLANE = False
LREAL = True
LSCALU = False
LWAVE = True
MAXMIX = 20
MDALGO = 2
NBLOCK = 1
NELM = 500
NELMIN = 4
NPAR = 4
NSIM = 4
NSW = 10000
POTIM = 2.0
PREC = Normal
SIGMA = 0.05
SMASS = -3
TEBEG = 300
TEEND = 1000
