AGGAC = 0.0
ALGO = Fast
EDIFF = 1e-07
ENCUT = 520.0
GGA = Bf
IBRION = 7
ISIF = 3
ISMEAR = 0
ISPIN = 2
LASPH = True
LCHARG = False
LEPSILON = True
LMAXMIX = 4
LORBIT = 11
LREAL = False
LUSE_VDW = True
LWAVE = False
MAGMOM = 56*0.6
NELM = 200
NFREE = 2
NPAR = 4
NSW = 1
NWRITE = 3
POTIM = 0.015
PREC = Accurate
SIGMA = 0.05
ZAB_VDW = -1.8867
