pymatgen with grid density = 1057 / number of atoms
0
Gamma
3 4 1
