ALGO = Fast
EDIFF = 1e-06
EDIFFG = -0.02
ENCUT = 520.0
IBRION = 2
ISIF = 3
ISMEAR = 0
ISPIN = 2
LASPH = True
LDAU = True
LDAUJ = 0.0 0 0
LDAUL = 2 0 0
LDAUPRINT = 1
LDAUTYPE = 2
LDAUU = 4.3 0 0
LMAXMIX = 4
LORBIT = 10
LREAL = Auto
LWAVE = False
MAGMOM = 8*5.0 16*0.0 32*0.6
NELM = 100
NPAR = 4
NSW = 500
POTIM = 0.2
PREC = Accurate
SIGMA = 0.05
