V8 Cr16 O32
1.0
   8.5651279999999996    0.0000000000000000    0.0000000000000005
   0.0000000000000014    8.5651279999999996    0.0000000000000005
   0.0000000000000000    0.0000000000000000    8.5651279999999996
V Cr O
8 16 32
direct
   0.2500000000000000    0.2500000000000000    0.2500000000000000 V
   0.5000000000000000    0.0000000000000000    0.5000000000000000 V
   0.2500000000000000    0.7500000000000000    0.7500000000000000 V
   0.5000000000000000    0.5000000000000000    0.0000000000000000 V
   0.7500000000000000    0.2500000000000000    0.7500000000000000 V
   0.0000000000000000    0.0000000000000000    0.0000000000000000 V
   0.7500000000000000    0.7500000000000000    0.2500000000000000 V
   0.0000000000000000    0.5000000000000000    0.5000000000000000 V
   0.1250000000000000    0.8750000000000000    0.3750000000000000 Cr
   0.1250000000000000    0.6250000000000000    0.1250000000000000 Cr
   0.3750000000000000    0.8750000000000000    0.1250000000000000 Cr
   0.3750000000000000    0.6250000000000000    0.3750000000000000 Cr
   0.1250000000000000    0.3750000000000000    0.8750000000000000 Cr
   0.1250000000000000    0.1250000000000000    0.6250000000000000 Cr
   0.3750000000000000    0.3750000000000000    0.6250000000000000 Cr
   0.3750000000000000    0.1250000000000000    0.8750000000000000 Cr
   0.6250000000000000    0.8750000000000000    0.8750000000000000 Cr
   0.6250000000000000    0.6250000000000000    0.6250000000000000 Cr
   0.8750000000000000    0.8750000000000000    0.6250000000000000 Cr
   0.8750000000000000    0.6250000000000000    0.8750000000000000 Cr
   0.6250000000000000    0.3750000000000000    0.3750000000000000 Cr
   0.6250000000000000    0.1250000000000000    0.1250000000000000 Cr
   0.8750000000000000    0.3750000000000000    0.1250000000000000 Cr
   0.8750000000000000    0.1250000000000000    0.3750000000000000 Cr
   0.8652630000000000    0.1347370000000000    0.1347370000000000 O
   0.1152630000000000    0.1152630000000000    0.3847370000000000 O
   0.1347370000000000    0.8652630000000000    0.1347370000000000 O
   0.3652630000000000    0.8652630000000000    0.3652630000000000 O
   0.3847370000000000    0.3847370000000000    0.3847370000000000 O
   0.1152630000000000    0.3847370000000000    0.1152630000000000 O
   0.6347370000000000    0.1347370000000000    0.3652630000000000 O
   0.3847370000000000    0.1152630000000000    0.1152630000000000 O
   0.8652630000000000    0.6347370000000000    0.6347370000000000 O
   0.1152630000000000    0.6152630000000000    0.8847370000000000 O
   0.1347370000000000    0.3652630000000000    0.6347370000000000 O
   0.3652630000000000    0.3652630000000000    0.8652630000000000 O
   0.3847370000000000    0.8847370000000000    0.8847370000000000 O
   0.1152630000000000    0.8847370000000000    0.6152630000000000 O
   0.6347370000000000    0.6347370000000000    0.8652630000000000 O
   0.3847370000000000    0.6152630000000000    0.6152630000000000 O
   0.3652630000000000    0.1347370000000000    0.6347370000000000 O
   0.6152630000000000    0.1152630000000000    0.8847370000000000 O
   0.6347370000000000    0.8652630000000000    0.6347370000000000 O
   0.8652630000000000    0.8652630000000000    0.8652630000000000 O
   0.8847370000000000    0.3847370000000000    0.8847370000000000 O
   0.6152630000000000    0.3847370000000000    0.6152630000000000 O
   0.1347370000000000    0.1347370000000000    0.8652630000000000 O
   0.8847370000000000    0.1152630000000000    0.6152630000000000 O
   0.3652630000000000    0.6347370000000000    0.1347370000000000 O
   0.6152630000000000    0.6152630000000000    0.3847370000000000 O
   0.6347370000000000    0.3652630000000000    0.1347370000000000 O
   0.8652630000000000    0.3652630000000000    0.3652630000000000 O
   0.8847370000000000    0.8847370000000000    0.3847370000000000 O
   0.6152630000000000    0.8847370000000000    0.1152630000000000 O
   0.1347370000000000    0.6347370000000000    0.3652630000000000 O
   0.8847370000000000    0.6152630000000000    0.1152630000000000 O
