Monkhorst Kpoint by lengths
0
Monkhorst
6 9 2
