AGGAC = 0.0
ALGO = Fast
EDIFF = 1e-06
EDIFFG = -0.02
ENCUT = 520.0
GGA = Bf
IBRION = 2
ISIF = 3
ISMEAR = 0
ISPIN = 2
LASPH = True
LDAU = True
LDAUJ = 0.0 0 0
LDAUL = 2 0 0
LDAUPRINT = 1
LDAUTYPE = 2
LDAUU = 4.0 0 0
LMAXMIX = 4
LORBIT = 10
LREAL = Auto
LUSE_VDW = True
LWAVE = False
MAGMOM = 8*5.0 48*0.6
NELM = 100
NSW = 500
POTIM = 0.2
PREC = Accurate
SIGMA = 0.05
ZAB_VDW = -1.8867
